NAME 
ROWS
 N  OBJ
 L  R0      
 E  R1      
 E  R2      
 E  R3      
 E  R4      
 E  R5      
COLUMNS
    MARKER    'MARKER'                 'INTORG'
    I0(4)     OBJ       -4
    I0(4)     R0        -20
    I0(4)     R1        3
    I0(4)     R2        5
    I0(4)     R5        1
    I1(4)     OBJ       3
    I1(4)     R0        89
    I1(4)     R2        10
    I1(4)     R3        19
    I1(4)     R5        1
    I2(4)     OBJ       -189
    I2(4)     R0        125
    I2(4)     R2        4
    I2(4)     R3        9
    I2(4)     R5        1
    MARKER    'MARKER'                 'INTEND'
    C3(3)     OBJ       9
    C3(3)     R0        -5
    C3(3)     R2        -1
    C3(3)     R4        10
    C4(2)     OBJ       5
    C4(2)     R0        9
    C4(2)     R3        4
    C5(1)     R1        1
    C6(1)     R2        1
    C7(1)     R3        1
    C8(1)     R4        1
    C9(1)     R5        1
RHS
    RHS1      R0        125
    RHS1      R1        93
    RHS1      R2        93
    RHS1      R3        71
    RHS1      R4        91
    RHS1      R5        1
BOUNDS
 UP BND1      I0(4)     2
 UP BND1      I1(4)     2
 UP BND1      I2(4)     2
ENDATA
